(define-fun-rec
  v4
  ((x Int) (y Int) (z Int)) Int (ite (<= x 0) z (v4 (- x 1) y z)))
(define-fun-rec
  u4
  ((x Int) (y Int) (z Int)) Int
  (ite (<= x 0) y (* (u4 (- x 1) y z) (v4 (- x 1) y z))))
(define-fun-rec
  u1
  ((x Int) (y Int)) Int (ite (<= x 0) y (* (u1 (- x 1) y) x)))
(define-fun
  j4
  () Int (+ 2 (+ 2 2)))
(define-fun
  w4
  ((x Int)) Int (u4 x 1 j4))
(define-fun
  h4
  ((x Int)) Int x)
(define-fun
  h1
  ((x Int)) Int x)
(define-fun
  g5
  () Int (+ 2 2))
(define-fun
  g4
  ((x Int) (y Int)) Int y)
(define-fun
  g3
  ((x Int)) Int x)
(define-fun
  g1
  () Int (+ 2 2))
(define-fun
  v1
  ((x Int)) Int (u1 g1 x))
(define-fun
  g0
  ((x Int)) Int x)
(define-fun
  f5
  ((x Int)) Int (+ 1 (+ x x)))
(define-fun-rec
  u5
  ((x Int) (y Int)) Int (ite (<= x 0) y (f5 (u5 (- x 1) y))))
(define-fun
  v5
  () Int (u5 g5 2))
(define-fun
  f3
  ((x Int)) Int (+ x x))
(define-fun-rec
  u3
  ((x Int) (y Int)) Int (ite (<= x 0) y (f3 (u3 (- x 1) y))))
(define-fun
  v3
  ((x Int)) Int (u3 x 1))
(define-fun
  f2
  ((x Int)) Int (* (* x x) x))
(define-fun-rec
  u2
  ((x Int) (y Int)) Int (ite (<= x 0) y (f2 (u2 (- x 1) y))))
(define-fun
  v2
  ((x Int)) Int (u2 1 (v3 x)))
(define-fun
  fast
  ((x Int)) Int (div (* (v2 x) (w4 x)) v5))
(define-fun
  f0
  ((x Int)) Int (+ 1 (* 2 (v1 x))))
(define-fun-rec
  u0
  ((x Int) (y Int)) Int (ite (<= x 0) y (f0 (u0 (- x 1) y))))
(define-fun
  v0
  ((x Int)) Int (u0 x 0))
(assert-not
  (forall ((c Int)) (or (not (>= c 0)) (= (v0 c) (fast c)))))
